% seed = 2467951

mint = 64;
% maxt = 221;

nActs = 42;
dur = [0,5,6,2,1,4,10,9,6,1,1,7,1,10,4,5,7,8,8,3,8,9,7,8,6,4,7,1,2,1,7,10,8,8,8,2,7,7,1,8,4,0];

nSkills = 4;
sreq = [| 0,0,0,0,
	| 5,4,2,4,
	| 2,2,4,4,
	| 2,4,2,2,
	| 4,5,0,0,
	| 2,1,2,1,
	| 5,0,0,3,
	| 3,5,1,4,
	| 3,0,4,5,
	| 7,0,7,0,
	| 1,2,3,2,
	| 7,3,0,0,
	| 0,7,0,4,
	| 0,7,6,0,
	| 6,4,0,0,
	| 3,6,3,0,
	| 5,0,3,0,
	| 7,3,3,3,
	| 4,1,0,6,
	| 0,4,6,7,
	| 7,0,6,0,
	| 4,6,4,0,
	| 0,5,2,0,
	| 3,5,5,3,
	| 0,4,6,4,
	| 1,5,5,2,
	| 7,3,0,3,
	| 2,3,7,2,
	| 5,6,4,0,
	| 4,2,2,7,
	| 0,5,4,0,
	| 4,0,3,0,
	| 2,2,5,3,
	| 0,5,5,0,
	| 5,0,4,4,
	| 6,7,0,0,
	| 7,5,0,5,
	| 0,7,0,6,
	| 5,1,2,3,
	| 2,2,4,3,
	| 4,6,5,0,
	| 0,0,0,0, |];

nResources = 30;
mastery = [| true,true,true,false,
	| false,true,true,false,
	| false,false,false,true,
	| false,true,false,false,
	| false,false,true,false,
	| false,true,false,false,
	| true,false,false,false,
	| true,false,false,false,
	| true,false,true,true,
	| true,false,true,true,
	| false,true,false,false,
	| false,true,false,false,
	| true,false,true,true,
	| true,false,true,true,
	| true,true,true,false,
	| true,true,false,false,
	| true,true,false,false,
	| false,true,false,false,
	| false,true,false,false,
	| true,false,true,true,
	| true,false,false,false,
	| true,false,false,true,
	| true,false,false,false,
	| false,false,false,true,
	| true,false,true,true,
	| false,false,true,false,
	| false,false,true,true,
	| false,true,false,true,
	| true,false,true,false,
	| true,false,true,true, |];

nPrecs = 73;
pred = [1,1,1,2,2,2,3,3,3,4,4,4,5,5,5,6,6,6,7,7,7,8,9,10,10,11,11,11,12,13,13,13,14,14,15,15,16,16,17,17,18,18,19,20,20,21,22,22,22,23,24,24,24,25,26,27,27,28,29,29,30,31,32,33,34,35,35,36,37,38,39,40,41];
succ = [2,3,4,17,13,15,5,31,8,33,7,40,26,12,6,10,20,14,9,11,21,15,17,29,38,25,18,16,39,21,22,23,33,32,26,24,19,28,26,30,38,23,34,23,24,39,41,29,30,36,33,27,32,28,37,28,29,35,36,37,34,35,34,41,35,38,39,40,40,41,42,42,42];

nUnrels = 456;
unpred = [2,2,2,2,2,2,2,2,2,2,2,2,2,2,2,2,2,3,3,3,3,3,3,3,3,3,3,3,3,3,4,4,4,4,4,4,4,4,4,4,4,4,4,4,4,5,5,5,5,5,5,5,5,5,5,5,5,5,5,5,6,6,6,6,6,6,6,6,6,6,6,6,6,6,6,6,6,7,7,7,7,7,7,7,7,7,7,7,7,7,7,8,8,8,8,8,8,8,8,8,8,8,8,8,8,8,8,8,9,9,9,9,9,9,9,9,9,9,9,9,9,9,9,9,9,9,9,9,9,9,10,10,10,10,10,10,10,10,10,10,10,10,10,10,10,10,10,10,10,10,10,10,10,10,10,11,11,11,11,11,11,11,11,11,11,11,11,11,11,11,11,11,12,12,12,12,12,12,12,12,12,12,12,12,12,12,12,12,12,12,12,12,12,12,12,12,12,12,12,12,13,13,13,13,13,13,13,13,13,13,13,13,13,13,13,14,14,14,14,14,14,14,14,14,14,14,14,14,14,14,14,14,14,14,14,15,15,15,15,15,15,15,15,15,15,15,16,16,16,16,16,16,16,16,16,16,16,16,16,16,16,16,16,16,17,17,17,17,17,17,17,17,17,17,17,17,17,17,17,18,18,18,18,18,18,18,18,18,18,18,18,18,18,18,18,18,18,19,19,19,19,19,19,19,19,19,19,19,19,19,19,19,19,19,20,20,20,20,20,20,21,21,21,21,21,21,21,21,21,21,21,21,21,21,21,21,21,21,21,22,22,22,22,22,22,22,22,22,23,23,23,23,23,23,23,23,23,23,23,23,23,23,23,23,24,24,24,24,25,25,25,25,25,25,25,25,25,25,25,26,26,26,26,26,26,26,26,26,26,26,26,26,27,27,27,27,27,28,28,28,28,28,28,28,28,28,29,29,29,29,29,29,29,29,29,30,30,30,30,30,30,31,31,31,31,31,31,32,32,32,32,33,33,33,33,33,33,33,34,34,34,35,35,35,36,36,36,36,37,37,37,38,38,39,39,40];
unsucc = [3,4,5,6,7,8,9,10,11,12,14,16,18,19,20,25,31,4,7,9,11,13,16,17,18,19,21,22,25,30,5,6,8,10,12,13,14,15,20,22,24,27,29,31,32,7,8,9,11,13,15,16,17,18,19,21,22,25,30,31,7,8,9,11,12,13,15,16,17,18,19,21,22,25,26,30,31,8,10,12,13,14,15,20,22,24,27,29,31,32,33,9,10,11,12,13,14,16,17,18,19,20,21,22,23,25,30,31,10,11,12,13,14,15,16,18,19,20,21,22,23,24,25,27,28,29,31,32,33,36,11,12,13,14,15,16,17,18,19,20,21,22,23,24,25,26,27,28,30,31,32,33,34,35,39,12,13,14,15,17,20,21,22,24,26,27,29,30,31,32,33,37,13,14,15,16,17,18,19,20,21,22,23,24,25,26,27,28,29,30,31,32,33,34,35,36,37,38,40,41,14,15,16,17,18,19,20,24,25,26,27,28,31,32,33,15,16,17,18,19,20,21,22,23,24,25,26,27,28,29,30,31,36,37,40,16,17,18,19,20,21,22,23,25,30,31,17,18,20,21,22,23,24,25,26,27,29,30,31,32,33,36,37,40,18,19,20,21,22,23,24,25,27,28,29,31,32,33,36,19,20,21,22,24,25,26,27,28,29,30,31,32,33,34,35,37,39,20,21,22,23,24,25,26,27,28,29,30,31,32,33,36,37,40,21,22,25,26,30,31,22,23,24,25,26,27,28,29,30,31,32,33,34,35,36,37,38,40,41,23,24,25,26,27,28,31,32,33,24,25,26,27,28,29,30,31,32,33,34,35,37,38,39,41,25,26,30,31,26,27,29,30,31,32,33,34,36,37,40,27,28,29,30,31,32,33,34,35,36,38,39,41,30,31,32,33,34,29,30,31,32,33,34,36,37,40,30,31,32,33,34,35,38,39,41,31,32,33,36,37,40,32,33,34,36,37,40,33,36,37,40,34,35,36,37,38,39,40,36,37,40,36,37,40,37,38,39,41,38,39,41,39,40,40,41,41];

USEFUL_RES = [{},
	{1,2,3,4,5,6,7,8,9,10,11,12,13,14,15,16,17,18,19,20,21,22,23,24,25,26,27,28,29,30},
	{1,2,3,4,5,6,7,8,9,10,11,12,13,14,15,16,17,18,19,20,21,22,23,24,25,26,27,28,29,30},
	{1,2,3,4,5,6,7,8,9,10,11,12,13,14,15,16,17,18,19,20,21,22,23,24,25,26,27,28,29,30},
	{1,2,4,6,7,8,9,10,11,12,13,14,15,16,17,18,19,20,21,22,23,25,28,29,30},
	{1,2,3,4,5,6,7,8,9,10,11,12,13,14,15,16,17,18,19,20,21,22,23,24,25,26,27,28,29,30},
	{1,3,7,8,9,10,13,14,15,16,17,20,21,22,23,24,25,27,28,29,30},
	{1,2,3,4,5,6,7,8,9,10,11,12,13,14,15,16,17,18,19,20,21,22,23,24,25,26,27,28,29,30},
	{1,2,3,5,7,8,9,10,13,14,15,16,17,20,21,22,23,24,25,26,27,28,29,30},
	{1,2,5,7,8,9,10,13,14,15,16,17,20,21,22,23,25,26,27,29,30},
	{1,2,3,4,5,6,7,8,9,10,11,12,13,14,15,16,17,18,19,20,21,22,23,24,25,26,27,28,29,30},
	{1,2,4,6,7,8,9,10,11,12,13,14,15,16,17,18,19,20,21,22,23,25,28,29,30},
	{1,2,3,4,6,9,10,11,12,13,14,15,16,17,18,19,20,22,24,25,27,28,30},
	{1,2,4,5,6,9,10,11,12,13,14,15,16,17,18,19,20,25,26,27,28,29,30},
	{1,2,4,6,7,8,9,10,11,12,13,14,15,16,17,18,19,20,21,22,23,25,28,29,30},
	{1,2,4,5,6,7,8,9,10,11,12,13,14,15,16,17,18,19,20,21,22,23,25,26,27,28,29,30},
	{1,2,5,7,8,9,10,13,14,15,16,17,20,21,22,23,25,26,27,29,30},
	{1,2,3,4,5,6,7,8,9,10,11,12,13,14,15,16,17,18,19,20,21,22,23,24,25,26,27,28,29,30},
	{1,2,3,4,6,7,8,9,10,11,12,13,14,15,16,17,18,19,20,21,22,23,24,25,27,28,29,30},
	{1,2,3,4,5,6,9,10,11,12,13,14,15,16,17,18,19,20,22,24,25,26,27,28,29,30},
	{1,2,5,7,8,9,10,13,14,15,16,17,20,21,22,23,25,26,27,29,30},
	{1,2,4,5,6,7,8,9,10,11,12,13,14,15,16,17,18,19,20,21,22,23,25,26,27,28,29,30},
	{1,2,4,5,6,9,10,11,12,13,14,15,16,17,18,19,20,25,26,27,28,29,30},
	{1,2,3,4,5,6,7,8,9,10,11,12,13,14,15,16,17,18,19,20,21,22,23,24,25,26,27,28,29,30},
	{1,2,3,4,5,6,9,10,11,12,13,14,15,16,17,18,19,20,22,24,25,26,27,28,29,30},
	{1,2,3,4,5,6,7,8,9,10,11,12,13,14,15,16,17,18,19,20,21,22,23,24,25,26,27,28,29,30},
	{1,2,3,4,6,7,8,9,10,11,12,13,14,15,16,17,18,19,20,21,22,23,24,25,27,28,29,30},
	{1,2,3,4,5,6,7,8,9,10,11,12,13,14,15,16,17,18,19,20,21,22,23,24,25,26,27,28,29,30},
	{1,2,4,5,6,7,8,9,10,11,12,13,14,15,16,17,18,19,20,21,22,23,25,26,27,28,29,30},
	{1,2,3,4,5,6,7,8,9,10,11,12,13,14,15,16,17,18,19,20,21,22,23,24,25,26,27,28,29,30},
	{1,2,4,5,6,9,10,11,12,13,14,15,16,17,18,19,20,25,26,27,28,29,30},
	{1,2,5,7,8,9,10,13,14,15,16,17,20,21,22,23,25,26,27,29,30},
	{1,2,3,4,5,6,7,8,9,10,11,12,13,14,15,16,17,18,19,20,21,22,23,24,25,26,27,28,29,30},
	{1,2,4,5,6,9,10,11,12,13,14,15,16,17,18,19,20,25,26,27,28,29,30},
	{1,2,3,5,7,8,9,10,13,14,15,16,17,20,21,22,23,24,25,26,27,28,29,30},
	{1,2,4,6,7,8,9,10,11,12,13,14,15,16,17,18,19,20,21,22,23,25,28,29,30},
	{1,2,3,4,6,7,8,9,10,11,12,13,14,15,16,17,18,19,20,21,22,23,24,25,27,28,29,30},
	{1,2,3,4,6,9,10,11,12,13,14,15,16,17,18,19,20,22,24,25,27,28,30},
	{1,2,3,4,5,6,7,8,9,10,11,12,13,14,15,16,17,18,19,20,21,22,23,24,25,26,27,28,29,30},
	{1,2,3,4,5,6,7,8,9,10,11,12,13,14,15,16,17,18,19,20,21,22,23,24,25,26,27,28,29,30},
	{1,2,4,5,6,7,8,9,10,11,12,13,14,15,16,17,18,19,20,21,22,23,25,26,27,28,29,30},
	{}];

POTENTIAL_ACT = [{2,3,4,5,6,7,8,9,10,11,12,13,14,15,16,17,18,19,20,21,22,23,24,25,26,27,28,29,30,31,32,33,34,35,36,37,38,39,40,41},
	{2,3,4,5,6,8,9,10,11,12,13,14,15,16,17,18,19,20,21,22,23,24,25,26,27,28,29,30,31,32,33,34,35,36,37,38,39,40,41},
	{2,3,4,6,7,8,9,11,13,18,19,20,24,25,26,27,28,30,33,35,37,38,39,40},
	{2,3,4,5,6,8,11,12,13,14,15,16,18,19,20,22,23,24,25,26,27,28,29,30,31,33,34,36,37,38,39,40,41},
	{2,3,4,6,8,9,10,11,14,16,17,18,20,21,22,23,24,25,26,28,29,30,31,32,33,34,35,39,40,41},
	{2,3,4,5,6,8,11,12,13,14,15,16,18,19,20,22,23,24,25,26,27,28,29,30,31,33,34,36,37,38,39,40,41},
	{2,3,4,5,6,7,8,9,10,11,12,15,16,17,18,19,21,22,24,26,27,28,29,30,32,33,35,36,37,39,40,41},
	{2,3,4,5,6,7,8,9,10,11,12,15,16,17,18,19,21,22,24,26,27,28,29,30,32,33,35,36,37,39,40,41},
	{2,3,4,5,6,7,8,9,10,11,12,13,14,15,16,17,18,19,20,21,22,23,24,25,26,27,28,29,30,31,32,33,34,35,36,37,38,39,40,41},
	{2,3,4,5,6,7,8,9,10,11,12,13,14,15,16,17,18,19,20,21,22,23,24,25,26,27,28,29,30,31,32,33,34,35,36,37,38,39,40,41},
	{2,3,4,5,6,8,11,12,13,14,15,16,18,19,20,22,23,24,25,26,27,28,29,30,31,33,34,36,37,38,39,40,41},
	{2,3,4,5,6,8,11,12,13,14,15,16,18,19,20,22,23,24,25,26,27,28,29,30,31,33,34,36,37,38,39,40,41},
	{2,3,4,5,6,7,8,9,10,11,12,13,14,15,16,17,18,19,20,21,22,23,24,25,26,27,28,29,30,31,32,33,34,35,36,37,38,39,40,41},
	{2,3,4,5,6,7,8,9,10,11,12,13,14,15,16,17,18,19,20,21,22,23,24,25,26,27,28,29,30,31,32,33,34,35,36,37,38,39,40,41},
	{2,3,4,5,6,7,8,9,10,11,12,13,14,15,16,17,18,19,20,21,22,23,24,25,26,27,28,29,30,31,32,33,34,35,36,37,38,39,40,41},
	{2,3,4,5,6,7,8,9,10,11,12,13,14,15,16,17,18,19,20,21,22,23,24,25,26,27,28,29,30,31,32,33,34,35,36,37,38,39,40,41},
	{2,3,4,5,6,7,8,9,10,11,12,13,14,15,16,17,18,19,20,21,22,23,24,25,26,27,28,29,30,31,32,33,34,35,36,37,38,39,40,41},
	{2,3,4,5,6,8,11,12,13,14,15,16,18,19,20,22,23,24,25,26,27,28,29,30,31,33,34,36,37,38,39,40,41},
	{2,3,4,5,6,8,11,12,13,14,15,16,18,19,20,22,23,24,25,26,27,28,29,30,31,33,34,36,37,38,39,40,41},
	{2,3,4,5,6,7,8,9,10,11,12,13,14,15,16,17,18,19,20,21,22,23,24,25,26,27,28,29,30,31,32,33,34,35,36,37,38,39,40,41},
	{2,3,4,5,6,7,8,9,10,11,12,15,16,17,18,19,21,22,24,26,27,28,29,30,32,33,35,36,37,39,40,41},
	{2,3,4,5,6,7,8,9,10,11,12,13,15,16,17,18,19,20,21,22,24,25,26,27,28,29,30,32,33,35,36,37,38,39,40,41},
	{2,3,4,5,6,7,8,9,10,11,12,15,16,17,18,19,21,22,24,26,27,28,29,30,32,33,35,36,37,39,40,41},
	{2,3,4,6,7,8,9,11,13,18,19,20,24,25,26,27,28,30,33,35,37,38,39,40},
	{2,3,4,5,6,7,8,9,10,11,12,13,14,15,16,17,18,19,20,21,22,23,24,25,26,27,28,29,30,31,32,33,34,35,36,37,38,39,40,41},
	{2,3,4,6,8,9,10,11,14,16,17,18,20,21,22,23,24,25,26,28,29,30,31,32,33,34,35,39,40,41},
	{2,3,4,6,7,8,9,10,11,13,14,16,17,18,19,20,21,22,23,24,25,26,27,28,29,30,31,32,33,34,35,37,38,39,40,41},
	{2,3,4,5,6,7,8,9,11,12,13,14,15,16,18,19,20,22,23,24,25,26,27,28,29,30,31,33,34,35,36,37,38,39,40,41},
	{2,3,4,5,6,7,8,9,10,11,12,14,15,16,17,18,19,20,21,22,23,24,25,26,27,28,29,30,31,32,33,34,35,36,37,39,40,41},
	{2,3,4,5,6,7,8,9,10,11,12,13,14,15,16,17,18,19,20,21,22,23,24,25,26,27,28,29,30,31,32,33,34,35,36,37,38,39,40,41}];
